p tw 40 98
0 1
0 11
0 12
0 34
0 2
0 21
0 17
0 35
1 7
1 20
1 24
1 6
1 29
2 3
2 8
2 16
2 25
3 23
3 33
3 21
3 31
3 9
4 5
4 34
5 16
5 18
5 20
5 36
6 7
6 27
6 11
6 36
6 26
6 25
7 12
7 19
7 11
7 8
8 24
8 35
9 10
9 15
9 29
9 14
9 26
9 22
10 21
10 29
10 11
10 16
11 15
11 35
11 20
12 15
13 14
13 16
13 26
13 36
14 16
15 32
16 25
16 21
17 18
17 29
17 37
18 23
18 28
18 19
19 27
19 22
19 35
19 34
20 26
20 28
20 34
20 30
21 22
21 28
21 31
23 35
24 31
24 37
25 34
26 33
26 35
26 30
26 32
29 30
29 38
29 37
29 36
29 33
31 32
31 39
32 34
33 36
33 34
35 37
